certificates/rado_a9_c222_N26.cnf
c Rad2 upper bound instance: x1 + 9*x2 - x3 = 222, interval [1,26]
p cnf 26 138
1 4 25 0
-1 -4 -25 0
1 13 26 0
-1 -13 -26 0
2 5 25 0
-2 -5 -25 0
2 14 26 0
-2 -14 -26 0
3 6 25 0
-3 -6 -25 0
3 15 26 0
-3 -15 -26 0
4 7 25 0
-4 -7 -25 0
4 16 26 0
-4 -16 -26 0
5 8 25 0
-5 -8 -25 0
5 17 26 0
-5 -17 -26 0
6 9 25 0
-6 -9 -25 0
6 18 26 0
-6 -18 -26 0
1 7 24 0
-1 -7 -24 0
7 10 25 0
-7 -10 -25 0
7 19 26 0
-7 -19 -26 0
2 8 24 0
-2 -8 -24 0
8 11 25 0
-8 -11 -25 0
8 20 26 0
-8 -20 -26 0
3 9 24 0
-3 -9 -24 0
9 12 25 0
-9 -12 -25 0
9 21 26 0
-9 -21 -26 0
4 10 24 0
-4 -10 -24 0
10 13 25 0
-10 -13 -25 0
10 22 26 0
-10 -22 -26 0
5 11 24 0
-5 -11 -24 0
11 14 25 0
-11 -14 -25 0
11 23 26 0
-11 -23 -26 0
6 12 24 0
-6 -12 -24 0
12 15 25 0
-12 -15 -25 0
12 24 26 0
-12 -24 -26 0
7 13 24 0
-7 -13 -24 0
13 16 25 0
-13 -16 -25 0
13 25 26 0
-13 -25 -26 0
8 14 24 0
-8 -14 -24 0
14 17 25 0
-14 -17 -25 0
14 26 0
-14 -26 0
9 15 24 0
-9 -15 -24 0
15 18 25 0
-15 -18 -25 0
1 16 23 0
-1 -16 -23 0
10 16 24 0
-10 -16 -24 0
16 19 25 0
-16 -19 -25 0
2 17 23 0
-2 -17 -23 0
11 17 24 0
-11 -17 -24 0
17 20 25 0
-17 -20 -25 0
3 18 23 0
-3 -18 -23 0
12 18 24 0
-12 -18 -24 0
18 21 25 0
-18 -21 -25 0
4 19 23 0
-4 -19 -23 0
13 19 24 0
-13 -19 -24 0
19 22 25 0
-19 -22 -25 0
5 20 23 0
-5 -20 -23 0
14 20 24 0
-14 -20 -24 0
20 23 25 0
-20 -23 -25 0
6 21 23 0
-6 -21 -23 0
15 21 24 0
-15 -21 -24 0
21 24 25 0
-21 -24 -25 0
7 22 23 0
-7 -22 -23 0
16 22 24 0
-16 -22 -24 0
22 25 0
-22 -25 0
8 23 0
-8 -23 0
17 23 24 0
-17 -23 -24 0
23 25 26 0
-23 -25 -26 0
9 23 24 0
-9 -23 -24 0
18 24 0
-18 -24 0
1 22 25 0
-1 -22 -25 0
10 23 25 0
-10 -23 -25 0
19 24 25 0
-19 -24 -25 0
2 22 26 0
-2 -22 -26 0
20 24 26 0
-20 -24 -26 0
