certificates/rado_a9_c222_N26.drat
-25 -26 0
d -23 -25 -26 0
-26 0
14 0
25 0
-22 0
-11 0
-17 0
2 0
10 0
23 0
5 0
24 0
0
